(set-logic ALL)
(set-option :produce-models true)
(define-fun-rec str.toLower ((x String)) String
  (ite (= x "")
      ""
      (let ((Head (str.at x 0)))
        (str.++ 
          (ite (and (<= 65 (str.to_code Head)) 
                     (<= (str.to_code Head) 90))
               (str.from_code (+ (str.to_code Head) 32))
               Head)
          (str.toLower (str.substr x 1 (- (str.len x) 1)))))))
(declare-fun sym1019 () String)
(declare-fun sym1668 () String)
(declare-fun sym1877 () String)
(declare-fun sym551 () String)
(declare-fun sym2090 () String)
(declare-fun sym1455 () String)
(declare-fun sym1232 () String)
(declare-fun sym811 () String)
(declare-fun sym2187 () String)
(declare-fun sym209 () String)
(declare-fun sym161 () String)

(assert (= (str.toLower (str.substr sym209  0 1))"y" ))
(assert (not (= "" "y" )))
(assert (not (= (str.toLower (str.substr sym1019  0 1))"q" )))
(assert (= (str.toLower (str.substr sym551  0 1))"k" ))
(assert (= (str.toLower (str.substr sym2090  0 1))"g" ))
(assert (not (= "" sym1455 )))
(assert (not (= "" sym1019 )))
(assert (not (= "" sym1232 )))
(assert (not (= "" sym2187 )))
(assert (not (= (str.toLower (str.substr sym1668  0 1))"p" )))
(assert (not (= "" sym1668 )))
(assert (not (= "" "q" )))
(assert (= "" sym161 ))
(assert (not (= (str.toLower (str.substr sym2090  0 1))"k" )))
(assert (not (= (str.toLower (str.substr sym2187  0 1))"y" )))
(assert (not (= "" (str.toLower (str.substr sym2187  0 1)))))
(assert (not (= (str.toLower (str.substr sym1668  0 1))"q" )))
(assert (not (= (str.toLower (str.substr sym551  0 1))"p" )))
(assert (not (= (str.toLower (str.substr sym811  0 1))"k" )))
(assert (not (= (str.toLower (str.substr sym811  0 1))"p" )))
(assert (not (= (str.toLower (str.substr sym811  0 1))"q" )))
(assert (not (= "" sym209 )))
(assert (not (= (str.toLower (str.substr sym1232  0 1))"q" )))
(assert (= "" "" ))
(assert (not (= "" sym551 )))
(assert (= (str.toLower (str.substr sym811  0 1))"g" ))
(assert (not (= (str.toLower (str.substr sym1232  0 1))"k" )))
(assert (= "y" "y" ))
(assert (not (= (str.toLower (str.substr sym551  0 1))"q" )))
(assert (not (= (str.toLower (str.substr sym1455  0 1))"p" )))
(assert (not (= (str.toLower (str.substr sym1455  0 1))"q" )))
(assert (not (= "" "y" )))
(assert (not (= (str.toLower (str.substr sym1668  0 1))"k" )))
(assert (= (str.toLower (str.substr sym1455  0 1))"k" ))
(assert (= (str.toLower (str.substr sym1877  0 1))"k" ))
(assert (= (str.toLower (str.substr sym1232  0 1))"g" ))
(assert (not (= "" sym811 )))
(assert (not (= "" sym2090 )))
(assert (not (= (str.toLower (str.substr sym1232  0 1))"p" )))
(assert (not (= (str.toLower (str.substr sym2090  0 1))"q" )))
(assert (= (str.toLower (str.substr sym1019  0 1))"k" ))
(assert (not (= (str.toLower (str.substr sym1877  0 1))"p" )))
(assert (not (= (str.toLower (str.substr sym2090  0 1))"p" )))
(assert (not (= "" (str.toLower (str.substr sym209  0 1)))))
(assert (not (= "" sym1877 )))
(assert (not (= "n" "y" )))
(assert (not (= "y" "n" )))
(assert (not (= "" "n" )))
(assert (not (= (str.toLower (str.substr sym1019  0 1))"p" )))
(assert (= (str.toLower (str.substr sym1668  0 1))"g" ))
(assert (not (= (str.toLower (str.substr sym1877  0 1))"q" )))
(check-sat)
(get-model)
(exit)
